instances_old/A-n10-k3-m0-b3ampl_.txt
set K:= 1	2	3;
set C_H:= 1	2	3;
set C_S:= 4	5	6;
set C_F:= 7	8	9;
set M:= 10	11	12	13	14	15;
set L_B:= 16	17	18;
set A1:=
(0,*) 1 2 3 7 8 9 10 11 12 13 14 15 16 17 18 19
(1,*) 0 2 3 7 8 9 10 11 12 13 14 15 16 17 18 19
(2,*) 0 1 3 7 8 9 10 11 12 13 14 15 16 17 18 19
(3,*) 0 1 2 7 8 9 10 11 12 13 14 15 16 17 18 19
(7,*) 0 1 2 3 8 9 10 11 12 13 14 15 16 17 18 19
(8,*) 0 1 2 3 7 9 10 11 12 13 14 15 16 17 18 19
(9,*) 0 1 2 3 7 8 10 11 12 13 14 15 16 17 18 19
(10,*) 0 1 2 3 7 8 9 11 12 13 14 15 16 17 18 19
(11,*) 0 1 2 3 7 8 9 10 12 13 14 15 16 17 18 19
(12,*) 0 1 2 3 7 8 9 10 11 13 14 15 16 17 18 19
(13,*) 0 1 2 3 7 8 9 10 11 12 14 15 16 17 18 19
(14,*) 0 1 2 3 7 8 9 10 11 12 13 15 16 17 18 19
(15,*) 0 1 2 3 7 8 9 10 11 12 13 14 16 17 18 19
(16,*) 0 1 2 3 7 8 9 10 11 12 13 14 15 17 18 19
(17,*) 0 1 2 3 7 8 9 10 11 12 13 14 15 16 18 19
(18,*) 0 1 2 3 7 8 9 10 11 12 13 14 15 16 17 19
(19,*) 0 1 2 3 7 8 9 10 11 12 13 14 15 16 17 18
;
set A2:=
;
param BigM:=99999;
param n:= 3;
param d:=
1	24
2	20
3	15
4	2
5	14
6	1
7	14
8	21
9	12
;
param Q:=100;
param e:
	10	11	12	13	14	15	16	17	18:=
4		0		0		0		0		0		0		0		0		1	
5		0		1		0		0		0		0		0		0		0	
6		0		1		0		0		0		0		0		0		0	
7		0		0		0		0		0		0		0		0		1	
8		0		0		0		0		0		1		0		0		0	
9		0		0		1		0		0		1		0		0		0	
;
param p:=
1	1
2	1
3	1
;
param G:=
10	85
11	76
12	85
13	83
14	87
15	97
16	79
17	75
18	82
;
param s:=
0	0
1	10
2	10
3	10
7	10
8	10
9	10
10	10
11	10
12	10
13	10
14	10
15	10
16	10
17	10
18	10
;
param t:
	0	1	2	3	4	5	6	7	8	9	10	11	12	13	14	15	16	17	18	19:=
0	0.0	75.96	25.96	84.86	21.1	101.41	76.84	16.28	77.88	64.03	20.81	83.49	64.94	61.19	13.0	62.8	38.42	54.67	25.08	0.0
1	75.96	0.0	55.57	83.19	82.49	87.09	65.76	84.53	100.72	121.7	56.72	83.55	119.5	15.81	68.59	104.2	62.24	64.01	58.83	75.96
2	25.96	55.57	0.0	63.81	26.93	78.64	53.04	29.41	64.38	68.6	20.62	62.77	67.42	39.82	27.59	57.01	17.72	32.76	3.61	25.96
3	84.86	83.19	63.81	0.0	69.63	18.68	17.46	76.61	28.79	75.01	84.22	2.0	70.06	73.01	90.8	49.01	47.01	31.06	62.43	84.86
4	21.1	82.49	26.93	69.63	0.0	87.46	65.19	7.07	58.31	44.78	36.25	68.01	44.92	66.73	33.14	41.77	28.16	42.38	23.71	21.1
5	101.41	87.09	78.64	18.68	87.46	0.0	26.08	94.34	45.28	93.09	98.41	20.62	88.02	79.83	106.15	67.12	63.03	46.75	77.79	101.41
6	76.84	65.76	53.04	17.46	65.19	26.08	0.0	71.69	41.11	81.02	72.47	18.03	76.66	56.08	80.62	55.97	38.59	22.85	52.5	76.84
7	16.28	84.53	29.41	76.61	7.07	94.34	71.69	0.0	65.19	47.8	34.41	75.0	48.66	68.94	29.12	47.8	33.96	48.85	26.68	16.28
8	77.88	100.72	64.38	28.79	58.31	45.28	41.11	65.19	0.0	48.84	84.34	26.93	43.57	87.6	87.28	23.77	47.04	37.36	61.66	77.88
9	64.03	121.7	68.6	75.01	44.78	93.09	81.02	47.8	48.84	0.0	81.02	73.01	5.39	106.08	76.92	26.0	59.67	63.98	65.0	64.03
10	20.81	56.72	20.62	84.22	36.25	98.41	72.47	34.41	84.34	81.02	0.0	83.24	80.99	43.0	12.0	74.33	38.28	53.24	22.8	20.81
11	83.49	83.55	62.77	2.0	68.01	20.62	18.03	75.0	26.93	73.01	83.24	0.0	68.07	73.06	89.63	47.01	45.8	30.02	61.29	83.49
12	64.94	119.5	67.42	70.06	44.92	88.02	76.66	48.66	43.57	5.39	80.99	68.07	0.0	104.0	77.67	21.1	57.28	60.42	63.81	64.94
13	61.19	15.81	39.82	73.01	66.73	79.83	56.08	68.94	87.6	106.08	43.0	73.06	104.0	0.0	55.0	89.31	46.86	50.33	43.05	61.19
14	13.0	68.59	27.59	90.8	33.14	106.15	80.62	29.12	87.28	76.92	12.0	89.63	77.67	55.0	0.0	74.17	43.83	59.82	28.43	13.0
15	62.8	104.2	57.01	49.01	41.77	67.12	55.97	47.8	23.77	26.0	74.33	47.01	21.1	89.31	74.17	0.0	42.94	41.87	53.6	62.8
16	38.42	62.24	17.72	47.01	28.16	63.03	38.59	33.96	47.04	59.67	38.28	45.8	57.28	46.86	43.83	42.94	0.0	16.28	15.65	38.42
17	54.67	64.01	32.76	31.06	42.38	46.75	22.85	48.85	37.36	63.98	53.24	30.02	60.42	50.33	59.82	41.87	16.28	0.0	31.4	54.67
18	25.08	58.83	3.61	62.43	23.71	77.79	52.5	26.68	61.66	65.0	22.8	61.29	63.81	43.05	28.43	53.6	15.65	31.4	0.0	25.08
;
